6 -1 0 0 10 3 7 9 2 -1 
9 3 6 6 1 1 2 2 4 -1 
5 5 10 0 7 3 -1 6 7 -1 
5 5 -1 2 6 10 5 10 0 -1 
1 3 -1 -1 7 1 2 4 3 -1 
7 4 1 9 -1 8 -1 0 8 -1 
5 3 -1 5 3 1 8 0 6 -1 
1 -1 2 10 -1 10 6 9 10 -1 
7 6 -1 4 10 0 6 9 8 -1 
10 -1 7 8 10 8 8 3 7 -1 
7 2 0 4 9 8 8 4 10 -1 
8 10 9 6 5 10 1 6 9 -1 
3 2 4 0 5 3 4 5 -1 -1 
6 7 9 1 8 1 6 5 4 -1 
4 9 1 1 5 9 -1 1 5 -1 
-1 7 5 -1 6 -1 4 1 2 -1 
2 0 6 6 10 -1 9 5 8 -1 
7 0 2 3 10 1 7 8 1 -1 
0 0 2 1 10 6 10 3 10 -1 
2 4 4 6 8 9 -1 3 -1 -1 
